N: 2000
R: 1000
Capacities: 497105
------
Total value: 497105
Total weight: 497105
Packed Items: [0, 1, 2, 3, 4, 5, 6, 7, 8, 9, 10, 11, 12, 13, 14, 15, 16, 17, 18, 19, 20, 21, 22, 23, 24, 25, 26, 27, 28, 29, 30, 31, 32, 33, 34, 35, 36, 37, 38, 39, 40, 41, 42, 43, 44, 45, 46, 47, 48, 49, 50, 51, 52, 53, 54, 55, 56, 57, 58, 59, 60, 61, 62, 63, 64, 65, 66, 67, 68, 69, 70, 71, 72, 73, 74, 75, 76, 77, 78, 79, 80, 81, 82, 83, 84, 85, 86, 87, 88, 89, 90, 91, 92, 93, 94, 95, 96, 97, 98, 99, 100, 101, 102, 103, 104, 105, 106, 107, 108, 109, 110, 111, 112, 113, 114, 115, 116, 117, 118, 119, 120, 121, 122, 123, 124, 125, 126, 127, 128, 129, 130, 131, 132, 133, 134, 135, 136, 137, 138, 139, 140, 141, 142, 143, 144, 145, 146, 147, 148, 149, 150, 151, 152, 153, 154, 155, 156, 157, 158, 159, 160, 161, 162, 163, 164, 165, 166, 167, 168, 169, 170, 171, 172, 173, 174, 175, 176, 177, 178, 179, 180, 181, 182, 183, 184, 185, 186, 187, 188, 189, 190, 191, 192, 193, 194, 195, 196, 197, 198, 199, 200, 201, 202, 203, 204, 205, 206, 207, 208, 209, 210, 211, 212, 213, 214, 215, 216, 217, 218, 219, 220, 221, 222, 223, 224, 225, 226, 227, 228, 229, 230, 231, 232, 233, 234, 235, 236, 237, 238, 239, 240, 241, 242, 243, 244, 245, 246, 247, 248, 249, 250, 251, 252, 253, 254, 255, 256, 257, 258, 259, 260, 261, 262, 263, 264, 265, 266, 267, 268, 269, 270, 271, 272, 273, 274, 275, 276, 277, 278, 279, 280, 281, 282, 283, 284, 285, 286, 287, 288, 289, 290, 291, 292, 293, 294, 295, 296, 297, 298, 299, 300, 301, 302, 303, 304, 305, 306, 307, 308, 309, 310, 311, 312, 313, 314, 315, 316, 317, 318, 319, 320, 321, 322, 323, 324, 325, 326, 327, 328, 329, 330, 331, 332, 333, 334, 335, 336, 337, 338, 339, 340, 341, 342, 343, 344, 345, 346, 347, 348, 349, 350, 351, 352, 353, 354, 355, 356, 357, 358, 359, 360, 361, 362, 363, 364, 365, 366, 367, 368, 369, 370, 371, 372, 373, 374, 375, 376, 377, 378, 379, 380, 381, 382, 383, 384, 385, 386, 387, 388, 389, 390, 391, 392, 393, 394, 395, 396, 397, 398, 399, 400, 401, 402, 403, 404, 405, 406, 407, 408, 409, 410, 411, 412, 413, 414, 415, 416, 417, 418, 419, 420, 421, 422, 423, 424, 425, 426, 427, 428, 429, 430, 431, 432, 433, 434, 435, 436, 437, 438, 439, 440, 441, 442, 443, 444, 445, 446, 447, 448, 449, 450, 451, 452, 453, 454, 455, 456, 457, 458, 459, 460, 461, 462, 463, 464, 465, 466, 467, 468, 469, 470, 471, 472, 473, 474, 475, 476, 477, 478, 479, 480, 481, 482, 483, 484, 485, 486, 487, 488, 489, 490, 491, 492, 493, 494, 495, 496, 497, 498, 499, 500, 501, 502, 503, 504, 505, 506, 507, 508, 509, 510, 511, 512, 513, 514, 515, 516, 517, 518, 519, 520, 521, 522, 523, 524, 525, 526, 527, 528, 529, 530, 531, 532, 533, 534, 535, 536, 537, 538, 539, 540, 541, 542, 543, 544, 545, 546, 547, 548, 549, 550, 551, 552, 553, 554, 555, 556, 557, 558, 559, 560, 561, 562, 563, 564, 565, 566, 567, 568, 569, 570, 571, 572, 573, 574, 575, 576, 577, 578, 579, 580, 581, 582, 583, 584, 585, 586, 587, 588, 589, 590, 591, 592, 593, 594, 595, 596, 597, 598, 599, 600, 601, 602, 603, 604, 605, 606, 607, 608, 609, 610, 611, 612, 613, 614, 615, 616, 617, 618, 619, 620, 621, 622, 623, 624, 625, 626, 627, 628, 629, 630, 631, 632, 633, 634, 635, 636, 637, 638, 639, 640, 641, 642, 643, 644, 645, 646, 647, 648, 649, 650, 651, 652, 653, 654, 655, 656, 657, 658, 659, 660, 661, 662, 663, 664, 665, 666, 667, 668, 669, 670, 671, 672, 673, 674, 675, 676, 677, 678, 679, 680, 681, 682, 683, 684, 685, 686, 687, 688, 689, 690, 691, 692, 693, 694, 695, 696, 697, 698, 699, 700, 701, 702, 703, 704, 705, 706, 707, 708, 709, 710, 711, 712, 713, 714, 715, 716, 717, 718, 719, 720, 721, 722, 723, 724, 725, 726, 727, 728, 729, 730, 731, 732, 733, 734, 735, 736, 737, 738, 739, 740, 741, 742, 743, 744, 745, 746, 747, 748, 749, 750, 751, 752, 753, 754, 755, 756, 757, 758, 759, 760, 761, 762, 763, 764, 765, 766, 767, 768, 769, 770, 771, 772, 773, 774, 775, 776, 777, 778, 779, 780, 781, 782, 783, 784, 785, 786, 787, 788, 789, 790, 791, 792, 793, 794, 795, 796, 797, 798, 799, 800, 801, 802, 803, 804, 805, 806, 807, 808, 809, 810, 811, 812, 813, 814, 815, 816, 817, 818, 819, 820, 821, 822, 823, 824, 825, 826, 827, 828, 829, 830, 831, 832, 833, 834, 835, 836, 837, 838, 839, 840, 841, 842, 843, 844, 845, 846, 847, 848, 849, 850, 851, 852, 853, 854, 855, 856, 857, 858, 859, 860, 861, 862, 863, 864, 865, 866, 867, 868, 869, 870, 871, 872, 873, 874, 875, 876, 877, 878, 879, 880, 881, 882, 883, 884, 885, 886, 887, 888, 889, 890, 891, 892, 893, 894, 895, 896, 897, 898, 899, 900, 901, 902, 903, 904, 905, 906, 907, 908, 909, 910, 911, 912, 913, 914, 915, 916, 917, 918, 919, 920, 921, 922, 923, 924, 925, 926, 927, 928, 929, 930, 931, 932, 933, 934, 935, 936, 937, 938, 939, 940, 941, 942, 943, 944, 945, 946, 947, 948, 949, 950, 951, 952, 953, 954, 955, 957, 958, 959, 960, 961, 962, 963, 964, 965, 966, 967, 968, 969, 970, 971, 972, 973, 974, 975, 976, 977, 978, 979, 980, 981, 982, 983, 984, 985, 986, ]
Packed Weights: [957, 948, 57, 85, 836, 736, 670, 309, 606, 607, 582, 159, 431, 394, 724, 995, 950, 545, 445, 269, 36, 28, 465, 319, 381, 892, 526, 561, 237, 24, 326, 137, 511, 999, 675, 182, 894, 797, 735, 907, 763, 790, 354, 981, 962, 162, 755, 716, 462, 531, 491, 925, 501, 832, 354, 883, 900, 462, 568, 921, 724, 487, 222, 325, 700, 167, 908, 269, 912, 310, 958, 707, 505, 518, 652, 588, 312, 208, 512, 935, 624, 76, 821, 726, 908, 192, 745, 59, 653, 274, 227, 876, 107, 523, 854, 245, 211, 881, 423, 717, 32, 363, 172, 673, 83, 955, 26, 730, 22, 256, 814, 158, 184, 692, 386, 44, 991, 152, 37, 345, 616, 743, 114, 338, 31, 449, 766, 740, 903, 756, 863, 706, 473, 226, 661, 317, 103, 448, 875, 128, 585, 393, 515, 144, 960, 260, 607, 420, 19, 558, 141, 57, 34, 162, 96, 636, 509, 984, 935, 995, 233, 445, 251, 592, 625, 801, 710, 257, 424, 527, 5, 36, 409, 112, 724, 241, 100, 182, 232, 218, 521, 465, 310, 642, 213, 907, 964, 729, 434, 512, 582, 52, 419, 526, 182, 94, 803, 367, 520, 922, 611, 290, 984, 373, 20, 686, 102, 306, 841, 673, 16, 452, 411, 486, 209, 589, 74, 285, 373, 936, 77, 755, 193, 572, 392, 464, 754, 396, 122, 122, 81, 851, 641, 960, 693, 25, 660, 778, 724, 498, 358, 458, 799, 269, 527, 478, 955, 805, 933, 837, 297, 232, 489, 260, 428, 680, 919, 586, 818, 96, 357, 998, 147, 417, 67, 87, 896, 989, 649, 129, 297, 232, 671, 682, 439, 524, 113, 541, 950, 756, 97, 517, 716, 258, 895, 461, 704, 405, 996, 783, 574, 145, 442, 30, 596, 882, 181, 511, 483, 405, 711, 937, 706, 473, 962, 331, 746, 659, 762, 853, 225, 622, 403, 667, 978, 635, 12, 465, 712, 884, 651, 817, 18, 944, 730, 607, 906, 885, 101, 816, 768, 200, 745, 587, 192, 805, 138, 613, 435, 254, 567, 468, 205, 967, 73, 4, 486, 838, 659, 755, 486, 675, 335, 267, 503, 28, 80, 754, 174, 751, 785, 405, 675, 788, 865, 135, 163, 382, 465, 295, 11, 558, 967, 367, 538, 383, 443, 871, 309, 650, 484, 539, 915, 77, 825, 305, 647, 796, 654, 393, 841, 93, 634, 392, 531, 851, 798, 629, 309, 233, 458, 233, 278, 958, 112, 819, 380, 365, 319, 78, 458, 167, 443, 292, 895, 922, 442, 640, 930, 327, 100, 238, 190, 679, 374, 357, 796, 234, 809, 633, 401, 824, 343, 879, 926, 503, 690, 949, 743, 752, 870, 936, 754, 980, 292, 623, 671, 368, 396, 175, 958, 355, 477, 894, 187, 961, 128, 29, 351, 360, 918, 884, 762, 437, 543, 237, 834, 390, 285, 638, 151, 317, 927, 96, 143, 205, 251, 421, 251, 343, 247, 241, 611, 337, 373, 768, 62, 145, 851, 430, 779, 133, 523, 846, 339, 769, 611, 395, 998, 393, 474, 620, 317, 838, 598, 589, 539, 985, 989, 841, 455, 412, 525, 47, 109, 996, 129, 938, 680, 916, 78, 306, 798, 9, 106, 351, 174, 147, 670, 92, 972, 650, 50, 899, 242, 482, 559, 139, 503, 61, 200, 919, 823, 523, 682, 876, 140, 493, 132, 117, 109, 212, 54, 216, 380, 623, 859, 905, 718, 508, 917, 163, 106, 818, 628, 211, 378, 298, 431, 428, 399, 798, 812, 563, 473, 285, 766, 987, 230, 704, 700, 659, 31, 552, 203, 195, 580, 646, 626, 743, 703, 476, 48, 773, 824, 836, 599, 39, 196, 109, 636, 545, 187, 956, 978, 900, 464, 292, 209, 825, 701, 278, 903, 569, 413, 416, 721, 456, 660, 123, 703, 273, 911, 215, 334, 539, 393, 526, 924, 202, 773, 694, 787, 448, 455, 346, 474, 255, 191, 477, 193, 470, 574, 310, 171, 606, 861, 223, 616, 659, 885, 683, 308, 208, 837, 300, 13, 871, 198, 314, 319, 256, 725, 343, 441, 420, 834, 19, 580, 132, 151, 607, 376, 65, 589, 915, 646, 496, 801, 916, 152, 300, 965, 926, 203, 704, 875, 592, 703, 524, 235, 214, 62, 666, 139, 622, 392, 437, 971, 392, 475, 380, 216, 225, 533, 818, 91, 946, 675, 54, 708, 402, 515, 101, 511, 520, 783, 581, 705, 735, 222, 25, 479, 130, 142, 322, 538, 616, 647, 943, 103, 558, 87, 671, 438, 141, 311, 661, 474, 945, 356, 341, 923, 606, 108, 785, 364, 948, 636, 805, 896, 510, 968, 26, 341, 838, 9, 673, 1000, 716, 863, 77, 541, 610, 436, 420, 791, 163, 45, 594, 967, 828, 674, 295, 905, 41, 247, 789, 895, 403, 910, 111, 597, 68, 234, 190, 7, 406, 501, 282, 652, 53, 518, 528, 404, 915, 127, 427, 460, 373, 974, 572, 517, 440, 438, 951, 800, 648, 163, 595, 128, 351, 24, 706, 978, 638, 570, 251, 443, 465, 423, 270, 220, 751, 953, 822, 622, 28, 303, 840, 973, 548, 569, 687, 248, 713, 366, 848, 462, 664, 557, 535, 461, 953, 755, 420, 506, 898, 748, 654, 959, 118, 598, 625, 455, 964, 968, 391, 617, 766, 697, 363, 799, 349, 147, 665, 650, 409, 499, 988, 809, 407, 912, 571, 405, 647, 784, 897, 671, 668, 401, 41, 455, 115, 943, 363, 606, 734, 179, 834, 326, 81, 600, 403, 920, 445, 95, 19, 31, 494, 715, 52, 330, 479, 898, 971, 876, 639, 576, 223, 613, 166, 304, 831, 569, 727, 466, 280, 504, 574, 242, 846, 982, 182, 243, 812, 722, 225, 586, 239, 863, 588, 511, 162, 406, 473, 362, 180, 199, 701, 925, 844, 616, 792, 134, 210, 704, 2, 84, 779, 197, 185, 396, 837, 11, 878, 572, 473, 122, 959, 176, 805, 879, 454, 961, 63, 148, 484, 75, 808, 527, 799, 287, 28, 891, 209, 417, 126, 587, 464, 199, 40, 338, 784, 154, 229, ]
Time Consuming: 0.014999628067016602